************************************************************************
file with basedata            : cr324_.bas
initial value random generator: 1844816904
************************************************************************
projects                      :  1
jobs (incl. supersource/sink ):  18
horizon                       :  130
RESOURCES
  - renewable                 :  3   R
  - nonrenewable              :  2   N
  - doubly constrained        :  0   D
************************************************************************
PROJECT INFORMATION:
pronr.  #jobs rel.date duedate tardcost  MPM-Time
    1     16      0       23        2       23
************************************************************************
PRECEDENCE RELATIONS:
jobnr.    #modes  #successors   successors
   1        1          3           2   3   4
   2        3          3           6   7  14
   3        3          3           6   9  14
   4        3          3           5   6   9
   5        3          3           7  12  16
   6        3          2          11  16
   7        3          1           8
   8        3          2          10  15
   9        3          3          15  16  17
  10        3          1          11
  11        3          1          13
  12        3          2          13  14
  13        3          1          17
  14        3          2          15  17
  15        3          1          18
  16        3          1          18
  17        3          1          18
  18        1          0        
************************************************************************
REQUESTS/DURATIONS:
jobnr. mode duration  R 1  R 2  R 3  N 1  N 2
------------------------------------------------------------------------
  1      1     0       0    0    0    0    0
  2      1     3      10    4    4    0    9
         2     4       9    4    4    2    0
         3     5       9    4    1    2    0
  3      1     2       8    4    8    7    0
         2     5       6    3    7    0    8
         3    10       5    3    6    5    0
  4      1     1       9    8    2    0    6
         2     8       8    7    2    8    0
         3     9       6    6    1    0    5
  5      1     7       4    4    5    0    2
         2     9       4    3    4    6    0
         3    10       4    1    4    4    0
  6      1     1       6   10    7    0    1
         2     3       4    9    6    6    0
         3     6       3    8    2    0    1
  7      1     5       7   10    5    9    0
         2     6       2    9    5    0    9
         3     6       4    9    4    6    0
  8      1     3       6    3    5    9    0
         2     3       7    4    5    0    7
         3     9       4    3    5    0    4
  9      1     2       5   10    7    0    8
         2     9       4   10    7    2    0
         3     9       5    9    5    0    4
 10      1     1       9    5    9    2    0
         2     2       6    3    7    2    0
         3     5       6    3    5    0    3
 11      1     2       5    8    9    0    6
         2     6       4    8    7    9    0
         3    10       4    7    1    0    3
 12      1     3       8    6    8    8    0
         2     6       7    5    7    6    0
         3     9       5    5    4    0    3
 13      1     1       9    5    8    6    0
         2     6       8    4    7    0    7
         3     7       8    4    5    0    7
 14      1     3       7    3    6    5    0
         2     5       3    3    6    5    0
         3    10       1    2    6    5    0
 15      1     3       7   10    7    7    0
         2     7       5    6    5    0    7
         3    10       5    4    4    0    7
 16      1     5       8   10   10    9    0
         2     7       6    8    8    6    0
         3     8       4    8    6    6    0
 17      1     3       7    6    3    4    0
         2     4       6    5    2    3    0
         3     7       3    3    1    3    0
 18      1     0       0    0    0    0    0
************************************************************************
RESOURCEAVAILABILITIES:
  R 1  R 2  R 3  N 1  N 2
   27   26   23   78   57
************************************************************************
